NAME: a280
DIMENSION: 16
EDGE_WEIGHT_TYPE: EUC_2D
NODE_COORD_SECTION
1 288 149
2 288 129
3 270 133
4 256 141
5 256 157
6 246 157
7 236 169
8 228 169
9 228 161
10 220 169
11 212 169
12 204 169
13 196 169
14 188 169
15 196 161
16 188 145
ACCEPTED_PROBABILITIES
0.0
0.19
0.22
0.31
0.31
0.4
0.52
0.59
0.57
0.66
0.74
0.8
0.88
0.95
0.87
0.93
OUTSOURCING_COSTS
0.0
1.33
1.6
2.2
2.2
2.87
3.73
4.2
4.07
4.73
5.27
5.73
6.27
6.8
6.2
6.67
